
Gurobi 6.5.2 (win64) logging started 07/24/16 17:23:49


Gurobi 6.5.2 (win64) logging started 07/24/16 17:23:49

Optimize a model with 729 rows, 189 columns and 1840 nonzeros
Coefficient statistics:
  Matrix range    [1e+00, 3e+02]
  Objective range [2e+00, 3e+02]
  Bounds range    [1e+00, 1e+00]
  RHS range       [1e+00, 1e+03]
Presolve removed 668 rows and 84 columns
Presolve time: 0.00s
Presolved: 61 rows, 105 columns, 419 nonzeros
Variable types: 0 continuous, 105 integer (105 binary)

Root relaxation: objective 1.356000e+03, 43 iterations, 0.00 seconds

    Nodes    |    Current Node    |     Objective Bounds      |     Work
 Expl Unexpl |  Obj  Depth IntInf | Incumbent    BestBd   Gap | It/Node Time

*    0     0               0    1356.0000000 1356.00000  0.00%     -    0s

Explored 0 nodes (43 simplex iterations) in 0.00 seconds
Thread count was 8 (of 8 available processors)

Optimal solution found (tolerance 1.00e-04)
Best objective 1.356000000000e+03, best bound 1.356000000000e+03, gap 0.0%

Wrote requested result file 'H1\instance2\\Results2SG_Sol5.lp'

